(set-info :source |printed by MathSAT|)
(declare-fun E_1 () Int)
(declare-fun N_1 () Int)
(declare-fun F_1 () Int)
(declare-fun I_1 () Int)
(declare-fun L_1 () Int)
(declare-fun D_1 () Int)
(declare-fun K_1 () Int)
(declare-fun B_1 () Int)
(declare-fun M_1 () Int)
(declare-fun A_1 () Int)
(declare-fun G_1 () Int)
(declare-fun P_1 () (Array Int Int))
(declare-fun Q_1 () (Array Int Int))
(declare-fun R_1 () (Array Int Int))
(declare-fun S_0 () (Array Int Int))
(declare-fun .loc.17 () Bool)
(declare-fun .loc.33 () Bool)
(declare-fun C_1 () Int)
(declare-fun E_4 () Int)
(declare-fun B_5 () Int)
(declare-fun F_4 () (Array Int Int))
(declare-fun G_4 () (Array Int Int))
(declare-fun H_4 () (Array Int Int))
(define-fun .def_8 () Int (! E_1 :next |.y.18|))
(define-fun .def_10 () Int (! N_1 :next |.y.19|))
(define-fun .def_12 () Int (! F_1 :next |.y.20|))
(define-fun .def_14 () Int (! I_1 :next |.y.21|))
(define-fun .def_16 () Int (! L_1 :next |.y.22|))
(define-fun .def_18 () Int (! D_1 :next |.y.23|))
(define-fun .def_20 () Int (! K_1 :next |.y.24|))
(define-fun .def_22 () Int (! B_1 :next |.y.25|))
(define-fun .def_24 () Int (! M_1 :next |.y.26|))
(define-fun .def_26 () Int (! A_1 :next |.y.27|))
(define-fun .def_28 () Int (! G_1 :next |.y.28|))
(define-fun .def_30 () (Array Int Int) (! P_1 :next |.y.29|))
(define-fun .def_32 () (Array Int Int) (! Q_1 :next |.y.30|))
(define-fun .def_34 () (Array Int Int) (! R_1 :next |.y.31|))
(define-fun .def_36 () (Array Int Int) (! S_0 :next |.y.32|))
(define-fun .def_38 () Bool (! .loc.17 :next |.loc.33|))
(define-fun .def_42 () Int (! C_1 :next |.xtv.1|))
(define-fun .def_92 () Int (! E_4 :next |.xiv.1|))
(define-fun .def_94 () Int (! B_5 :next |.xiv.2|))
(define-fun .def_100 () (Array Int Int) (! F_4 :next |.xiv.3|))
(define-fun .def_104 () (Array Int Int) (! G_4 :next |.xiv.4|))
(define-fun .def_116 () (Array Int Int) (! H_4 :next |.xiv.5|))
(define-fun .def_89 () Bool (! (not .def_38) :invar-property 0))
(define-fun .def_84 () Int (select .def_30 .def_26))
(define-fun .def_85 () Int (* (- 1) .def_84))
(define-fun .def_86 () Int (+ .def_26 .def_85))
(define-fun .def_87 () Bool (= .def_86 (- 4)))
(define-fun .def_146 () Bool (and .def_87 .def_89))
(define-fun .def_72 () Bool (<= .def_26 0))
(define-fun .def_73 () Bool (not .def_72))
(define-fun .def_147 () Bool (and .def_73 .def_146))
(define-fun .def_57 () Int (select .def_34 .def_26))
(define-fun .def_58 () Bool (= .def_26 .def_57))
(define-fun .def_148 () Bool (and .def_58 .def_147))
(define-fun .def_135 () Bool (= .def_22 0))
(define-fun .def_149 () Bool (and .def_135 .def_148))
(define-fun .def_55 () Bool (= .def_18 .def_26))
(define-fun .def_150 () Bool (and .def_55 .def_149))
(define-fun .def_41 () Bool (= .def_14 0))
(define-fun .def_151 () Bool (and .def_41 .def_150))
(define-fun .def_137 () Bool (= .def_12 0))
(define-fun .def_138 () Bool (and .def_89 .def_137))
(define-fun .def_139 () Bool (and .def_87 .def_138))
(define-fun .def_140 () Bool (and .def_73 .def_139))
(define-fun .def_141 () Bool (and .def_58 .def_140))
(define-fun .def_136 () Bool (not .def_135))
(define-fun .def_142 () Bool (and .def_136 .def_141))
(define-fun .def_143 () Bool (and .def_55 .def_142))
(define-fun .def_144 () Bool (and .def_41 .def_143))
(define-fun .def_102 () Int (select .def_100 .def_92))
(define-fun .def_130 () Int (* (- 1) .def_102))
(define-fun .def_131 () Int (+ .def_92 .def_130))
(define-fun .def_132 () Bool (= .def_131 (- 4)))
(define-fun .def_122 () Int (select .def_116 .def_92))
(define-fun .def_128 () Bool (= .def_92 .def_122))
(define-fun .def_125 () Bool (<= .def_92 0))
(define-fun .def_126 () Bool (not .def_125))
(define-fun .def_117 () Int (select .def_116 .def_94))
(define-fun .def_123 () Bool (= .def_117 .def_122))
(define-fun .def_118 () Bool (<= .def_117 .def_94))
(define-fun .def_119 () Bool (not .def_118))
(define-fun .def_101 () Int (select .def_100 .def_94))
(define-fun .def_115 () Bool (<= .def_101 .def_94))
(define-fun .def_120 () Bool (or .def_115 .def_119))
(define-fun .def_113 () Bool (<= .def_92 .def_94))
(define-fun .def_108 () Int (select .def_104 .def_92))
(define-fun .def_105 () Int (select .def_104 .def_94))
(define-fun .def_109 () Bool (= .def_105 .def_108))
(define-fun .def_106 () Bool (= .def_105 1))
(define-fun .def_107 () Bool (not .def_106))
(define-fun .def_110 () Bool (and .def_107 .def_109))
(define-fun .def_103 () Bool (= .def_101 .def_102))
(define-fun .def_111 () Bool (and .def_103 .def_110))
(define-fun .def_96 () Int (* (- 1) .def_94))
(define-fun .def_97 () Int (+ .def_92 .def_96))
(define-fun .def_98 () Bool (<= .def_97 (- 4)))
(define-fun .def_99 () Bool (not .def_98))
(define-fun .def_112 () Bool (and .def_99 .def_111))
(define-fun .def_114 () Bool (and .def_112 .def_113))
(define-fun .def_121 () Bool (and .def_114 .def_120))
(define-fun .def_124 () Bool (and .def_121 .def_123))
(define-fun .def_127 () Bool (and .def_124 .def_126))
(define-fun .def_129 () Bool (and .def_127 .def_128))
(define-fun .def_133 () Bool (and .def_129 .def_132))
(define-fun .def_134 () Bool (and .def_38 .def_133))
(define-fun .def_145 () Bool (or .def_134 .def_144))
(define-fun .def_152 () Bool (! (or .def_145 .def_151) :init true))
(define-fun .def_81 () Int (select .def_34 .def_18))
(define-fun .def_76 () Int (select .def_34 .def_42))
(define-fun .def_82 () Bool (= .def_76 .def_81))
(define-fun .def_77 () Bool (<= .def_76 .def_42))
(define-fun .def_78 () Bool (not .def_77))
(define-fun .def_43 () Int (select .def_30 .def_42))
(define-fun .def_75 () Bool (<= .def_43 .def_42))
(define-fun .def_79 () Bool (or .def_75 .def_78))
(define-fun .def_70 () Bool (<= .def_18 .def_42))
(define-fun .def_65 () Int (* (- 1) .def_42))
(define-fun .def_66 () Int (+ .def_18 .def_65))
(define-fun .def_67 () Bool (<= .def_66 (- 4)))
(define-fun .def_68 () Bool (not .def_67))
(define-fun .def_50 () Int (select .def_32 .def_18))
(define-fun .def_47 () Int (select .def_32 .def_42))
(define-fun .def_51 () Bool (= .def_47 .def_50))
(define-fun .def_48 () Bool (= .def_47 1))
(define-fun .def_49 () Bool (not .def_48))
(define-fun .def_52 () Bool (and .def_49 .def_51))
(define-fun .def_44 () Int (select .def_30 .def_18))
(define-fun .def_45 () Bool (= .def_43 .def_44))
(define-fun .def_53 () Bool (and .def_45 .def_52))
(define-fun .def_54 () Bool (and .def_41 .def_53))
(define-fun .def_56 () Bool (and .def_54 .def_55))
(define-fun .def_59 () Bool (and .def_56 .def_58))
(define-fun .def_69 () Bool (and .def_59 .def_68))
(define-fun .def_71 () Bool (and .def_69 .def_70))
(define-fun .def_74 () Bool (and .def_71 .def_73))
(define-fun .def_80 () Bool (and .def_74 .def_79))
(define-fun .def_83 () Bool (and .def_80 .def_82))
(define-fun .def_88 () Bool (and .def_83 .def_87))
(define-fun .def_90 () Bool (and .def_88 .def_89))
(define-fun .def_91 () Bool (! (and .loc.33 .def_90) :trans true))
(assert true)
